50
1000
699
699
672
645
638
634
626
618
608
600
596
581
574
573
563
559
541
515
505
500
480
471
459
455
451
449
419
397
382
377
373
346
343
328
326
310
276
271
267
264
241
200
193
187
161
156
154
133
127
101
